70
    1    13     6
    2     3     9
    3    44    47
    4     3     2
    5     4    11
    6    57    54
    7     5     8
    8    29    26
    9    47    50
   10    62    55
   11    27    22
   12    27    20
   13    40    33
   14     7     1
   15    27    25
   16    14    11
   17    59    66
   18    26    19
   19    17    20
   20    58    59
   21     8     8
   22     6     4
   23    43    41
   24     5     9
   25    36    35
   26    70    65
   27    11     5
   28    33    26
   29    67    62
   30     1     8
   31    45    42
   32    16    16
   33    25    22
   34    40    40
   35    47    41
   36    60    66
   37    36    35
   38    18    13
   39    48    45
   40    54    51
   41    48    48
   42    16    18
   43     6     3
   44     9    10
   45    13    10
   46    22    21
   47     5     2
   48     1     2
   49    30    34
   50    57    51
   51    51    55
   52    25    31
   53    67    70
   54    17    15
   55    50    47
   56    72    68
   57    43    50
   58     6     1
   59    30    27
   60    47    51
   61    43    45
   62    30    31
   63    62    68
   64    10     7
   65     8     4
   66     8    11
   67    69    65
   68    63    67
   69    10    13
   70    37    30
71
